NAME: tsp30-15
TYPE: TSP
DIMENSION: 30
EDGE_WEIGHT_TYPE: EUC_2D
NODE_COORD_SECTION
0 3 77
1 82 4
2 66 14
3 40 11
4 45 12
5 100 80
6 99 68
7 21 2
8 63 24
9 36 35
10 46 40
11 48 19
12 12 35
13 49 87
14 45 16
15 75 33
16 71 26
17 75 88
18 21 60
19 57 40
20 69 93
21 84 14
22 67 38
23 47 36
24 30 89
25 97 88
26 73 13
27 82 40
28 65 80
29 66 41
EOF